c 
c MolecularSimulation 0.9.3
c Simulation written: Jan 13 2012 -- 15:17:57
c Test: Distribution
c Input: ./data/testCNF/SWEEP_R6_K3_N16_M96_S002.cnf
c 
s SATISFIABLE
v 1 2 -3 4 -5 6 -7 -8 -9 10 -11 12 -13 14 15 16 0
c algorithmTime:  30
c solutionMemory: 7
c mixCount:       285
c extractCount:   0
c appendCount:    610750
c splitCount:     285
c spliceCount:    293262
c purifyCount:    95
c 
